
Gurobi 8.1.1 (win64) logging started 11/24/19 13:00:39

Changed value of parameter LogFile to logs/full/ip/full-07-15-2.log
   Prev: gurobi.log  Default: 
Changed value of parameter LogToConsole to 0
   Prev: 1  Min: 0  Max: 1  Default: 1
Changed value of parameter TimeLimit to 3600.0
   Prev: 1e+100  Min: 0.0  Max: 1e+100  Default: 1e+100
Optimize a model with 8817 rows, 4202 columns and 33999 nonzeros
Variable types: 0 continuous, 4202 integer (4180 binary)
Coefficient statistics:
  Matrix range     [1e+00, 5e+02]
  Objective range  [1e+00, 1e+00]
  Bounds range     [1e+00, 1e+00]
  RHS range        [1e+00, 5e+02]
Presolve removed 3 rows and 3 columns
Presolve time: 0.27s
Presolved: 8814 rows, 4199 columns, 33990 nonzeros
Variable types: 0 continuous, 4199 integer (4177 binary)

Root relaxation: objective 4.500000e+00, 1279 iterations, 0.08 seconds

    Nodes    |    Current Node    |     Objective Bounds      |     Work
 Expl Unexpl |  Obj  Depth IntInf | Incumbent    BestBd   Gap | It/Node Time

     0     0    4.50000    0  280          -    4.50000      -     -    0s
     0     0    7.00000    0   63          -    7.00000      -     -    1s
     0     0    7.00000    0   59          -    7.00000      -     -    1s
     0     0    7.00000    0   59          -    7.00000      -     -    1s
     0     0    7.00000    0   60          -    7.00000      -     -    1s
     0     0    7.00000    0   58          -    7.00000      -     -    2s
     0     0    7.00000    0   58          -    7.00000      -     -    2s
     0     0    7.00000    0   41          -    7.00000      -     -    2s
     0     0    7.00000    0   41          -    7.00000      -     -    2s
     0     0    7.00000    0   39          -    7.00000      -     -    3s
     0     0    7.00000    0   39          -    7.00000      -     -    3s
     0     0    7.00000    0   41          -    7.00000      -     -    3s
     0     0    7.00000    0   41          -    7.00000      -     -    3s
H    0     0                      22.0000000    7.00000  68.2%     -    4s
     0     2    7.00000    0   33   22.00000    7.00000  68.2%     -    5s
H  509   197                      21.0000000    7.00000  66.7%  39.6    8s
  1146   453    8.00000   42   27   21.00000    7.00000  66.7%  30.2   10s
H 1372   565                      19.0000000    7.00000  63.2%  28.5   11s
H 1484   555                      18.0000000    7.00000  61.1%  27.9   16s
H 1486   529                      16.0000000    7.00000  56.3%  27.9   17s
H 1491   507                      14.0000000    7.00000  50.0%  33.1   18s
H 1491   481                      13.0000000    7.00000  46.2%  33.1   18s
H 1494   459                      12.0000000    7.00000  41.7%  33.1   18s
H 1494   437                      11.0000000    7.00000  36.4%  38.6   19s
  1502   443    8.00000   94   32   11.00000    7.00000  36.4%  38.4   20s
H 1522   435                       9.0000000    7.00000  22.2%  46.1   22s
  1713   450    7.00000   84   67    9.00000    7.00000  22.2%  28.4   25s
  4654  1720 infeasible  183         9.00000    7.00000  22.2%  25.8   30s
 19783 12573    7.00000   85   56    9.00000    7.00000  22.2%  16.6   35s
 28870 19368    8.00000  172   70    9.00000    7.00000  22.2%  16.1   40s
 44144 31140    8.00000  167   46    9.00000    7.00000  22.2%  14.8   45s
 53339 38202    8.00000  189   61    9.00000    7.00000  22.2%  14.7   50s
 72337 52671    8.00000  247   40    9.00000    7.00000  22.2%  13.5   55s
 83796 61519    7.00600  140  113    9.00000    7.00000  22.2%  13.3   60s
 96449 71385    8.00000  171   45    9.00000    7.00000  22.2%  13.0   65s
 106401 78636    8.00000  221   57    9.00000    7.00000  22.2%  13.2   70s
 122180 90933    8.00000  112   60    9.00000    7.00000  22.2%  13.1   75s
H126566  2501                       8.0000000    7.00000  12.5%  13.1   76s
 126919  2490    7.00000   81   41    8.00000    7.00000  12.5%  13.1   87s
 127456  2547    7.00000  141   54    8.00000    7.00000  12.5%  13.2   90s
 138658  1158 infeasible  159         8.00000    7.00000  12.5%  13.3   95s
 149704  1648    7.00000  159   38    8.00000    7.00000  12.5%  13.3  100s
 161921  3367 infeasible  150         8.00000    7.00000  12.5%  13.4  105s
 171893  3819 infeasible  150         8.00000    7.00000  12.5%  13.7  110s
 182150  4017 infeasible  157         8.00000    7.00000  12.5%  13.9  115s
 194976  4629 infeasible  172         8.00000    7.00000  12.5%  13.9  120s
 204895  5237 infeasible  178         8.00000    7.00000  12.5%  14.0  125s
 218229  6706 infeasible  135         8.00000    7.00000  12.5%  14.0  130s
 230005  7113 infeasible  149         8.00000    7.00000  12.5%  14.1  135s
 241906  7631 infeasible  174         8.00000    7.00000  12.5%  14.1  140s
 253886  7743 infeasible  166         8.00000    7.00000  12.5%  14.1  145s
 264988  8266 infeasible  160         8.00000    7.00000  12.5%  14.2  150s
 274639  8610    7.00000  130   54    8.00000    7.00000  12.5%  14.3  155s
 286175  9053 infeasible  179         8.00000    7.00000  12.5%  14.3  160s
 298181  9691 infeasible  147         8.00000    7.00000  12.5%  14.4  165s
 309231  9704 infeasible  162         8.00000    7.00000  12.5%  14.4  170s
 320147 10164 infeasible  110         8.00000    7.00000  12.5%  14.5  175s
 330131 10517 infeasible  184         8.00000    7.00000  12.5%  14.6  180s
 340256 10689 infeasible  147         8.00000    7.00000  12.5%  14.6  185s
 349822 10952    7.00000  145   30    8.00000    7.00000  12.5%  14.8  190s
 360298 11346 infeasible  152         8.00000    7.00000  12.5%  14.8  195s
 371001 11347    7.00000  116   58    8.00000    7.00000  12.5%  14.8  200s
 380908 11747 infeasible  137         8.00000    7.00000  12.5%  14.9  205s
 391704 11912 infeasible  174         8.00000    7.00000  12.5%  14.9  210s
 402181 11945 infeasible  156         8.00000    7.00000  12.5%  15.0  215s
 413432 12392 infeasible  145         8.00000    7.00000  12.5%  15.0  220s
 422572 12192    7.00000  173   48    8.00000    7.00000  12.5%  15.1  225s
 433439 12605 infeasible  153         8.00000    7.00000  12.5%  15.1  230s
 443270 12612    7.00000  129   34    8.00000    7.00000  12.5%  15.2  235s
 452797 12799 infeasible  171         8.00000    7.00000  12.5%  15.3  240s
 460878 13231 infeasible  150         8.00000    7.00000  12.5%  15.4  245s
 469585 13591 infeasible  114         8.00000    7.00000  12.5%  15.6  250s
 478567 13669 infeasible  158         8.00000    7.00000  12.5%  15.6  255s
 488084 13911 infeasible  131         8.00000    7.00000  12.5%  15.7  260s
 497485 14139 infeasible  174         8.00000    7.00000  12.5%  15.8  265s
 506456 14421 infeasible  132         8.00000    7.00000  12.5%  15.8  270s
 515732 14330    7.00000  124   42    8.00000    7.00000  12.5%  15.9  275s
 525794 14231 infeasible  145         8.00000    7.00000  12.5%  15.9  280s
 535904 14252    7.00000  142   38    8.00000    7.00000  12.5%  15.9  285s
 546095 14296 infeasible  141         8.00000    7.00000  12.5%  15.9  290s
 554833 14596 infeasible  163         8.00000    7.00000  12.5%  16.0  295s
 565622 14948    7.00000  209   34    8.00000    7.00000  12.5%  16.0  300s
 574675 14795 infeasible  163         8.00000    7.00000  12.5%  16.0  305s
 585787 15184    7.00000  171   36    8.00000    7.00000  12.5%  16.1  310s
 595926 14882 infeasible  165         8.00000    7.00000  12.5%  16.1  315s
 606245 15091 infeasible  148         8.00000    7.00000  12.5%  16.1  320s
 615792 15217 infeasible  156         8.00000    7.00000  12.5%  16.1  325s
 625891 15652 infeasible  193         8.00000    7.00000  12.5%  16.2  330s
 635757 15707 infeasible  208         8.00000    7.00000  12.5%  16.2  335s
 645394 15595 infeasible  132         8.00000    7.00000  12.5%  16.2  340s
 653622 15744 infeasible  158         8.00000    7.00000  12.5%  16.3  345s
 662299 15903    7.00000  130   30    8.00000    7.00000  12.5%  16.3  350s
 671806 15939 infeasible  159         8.00000    7.00000  12.5%  16.3  355s
 679150 15930 infeasible  171         8.00000    7.00000  12.5%  16.3  360s
 687453 16047 infeasible  163         8.00000    7.00000  12.5%  16.4  365s
 698074 16139 infeasible  110         8.00000    7.00000  12.5%  16.3  370s
 707529 16430 infeasible  169         8.00000    7.00000  12.5%  16.4  375s
 717372 16314 infeasible  135         8.00000    7.00000  12.5%  16.4  380s
 725771 16251 infeasible  201         8.00000    7.00000  12.5%  16.5  385s
 735715 16821 infeasible  158         8.00000    7.00000  12.5%  16.5  390s
 747099 16344 infeasible  137         8.00000    7.00000  12.5%  16.5  395s
 755869 16737 infeasible  176         8.00000    7.00000  12.5%  16.5  400s
 765549 17247 infeasible  169         8.00000    7.00000  12.5%  16.6  405s
 774904 17057 infeasible  156         8.00000    7.00000  12.5%  16.6  410s
*781404     6             186       7.0000000    7.00000  0.00%  16.6  413s

Cutting planes:
  Gomory: 1
  MIR: 1
  Flow cover: 8
  Inf proof: 13
  Zero half: 1

Explored 781781 nodes (13060016 simplex iterations) in 413.48 seconds
Thread count was 4 (of 4 available processors)

Solution count 10: 7 8 9 ... 19

Optimal solution found (tolerance 1.00e-04)
Best objective 7.000000000000e+00, best bound 7.000000000000e+00, gap 0.0000%
